p cnf 5 27
-5 4 -1 0
2 -5 0
5 0
3 0
4 0
5 -3 0
2 -4 0
-1 0
2 0
3 -4 0
2 -3 -2 0
-3 -1 0
2 3 -4 -3 0
-4 -1 0
3 -1 0
1 0
-5 0
-1 0
3 -2 0
1 -5 -3 -1 0
-5 -3 -1 -2 0
3 4 0
1 2 -3 -2 0
3 -1 0
2 3 -4 -3 0
5 -3 0
2 3 -4 4 0
